%infile=CO_NH3_CH2O_x0
# RePATH/wB97XD/6-31+G* Field=x+0

0 1
C    -0.807094172608      0.000000000000     -4.612960658960
O    -1.358933544284      0.126832008077     -5.635870937770
O    -2.746655972552     -0.363605323694     -2.315030852376
C    -2.746663230461     -0.363612348295     -1.108381852408
H    -2.746652343566      0.574058188694     -0.513521393654
H    -2.746652343626     -1.301261811461     -0.513500310976
N     0.947586415354     -1.438178719915     -2.774552594409
H     0.947586415370     -0.500998719919     -2.377129594400
H     1.759207415370     -1.906768719919     -2.377129594445
H     0.135965415370     -1.906768719919     -2.377129594380
Options
GauProc=2
GauMem=1000
DownDC=12
KeepLUPPaths
